\ENCODING=ISO-8859-1
\Problem name: TSP

Minimize
 obj1: 0 x1 + 16.6502364071733 x2 + 10.3732600321322 x3 + 8.99151130134739 x4
       + 8.09390201923163 x5 + 18.0856070731282 x6 + 16.1403937165699 x7
       + 10.1227545781222 x8 + 9.51733296485074 x9 + 7.932444699506 x10
       + 16.6502364071733 x11 + 0 x12 + 6.72396476772609 x13
       + 10.6927517934099 x14 + 15.9888860959128 x15 + 4.87561003168372 x16
       + 1.52370207924181 x17 + 17.9505813529882 x18 + 22.1424467810049 x19
       + 11.3661988158471 x20 + 10.3732600321322 x21 + 6.72396476772609 x22
       + 0 x23 + 4.4003032211354 x24 + 12.1980466073555 x25
       + 7.80098668584588 x26 + 5.89948483186773 x27 + 11.7076943528548 x28
       + 15.4900508762517 x29 + 4.81836157769787 x30 + 8.99151130134739 x31
       + 10.6927517934099 x32 + 4.4003032211354 x33 + 0 x34
       + 13.7139421225861 x35 + 10.1224364938445 x36 + 9.55171744961241 x37
       + 7.33967092491178 x38 + 11.557977255151 x39 + 1.08168273365604 x40
       + 8.09390201923163 x41 + 15.9888860959128 x42 + 12.1980466073555 x43
       + 13.7139421225861 x44 + 0 x45 + 19.3681703216218 x46
       + 16.234336483729 x47 + 17.6566011551735 x48 + 17.601203616147 x49
       + 12.9779741053986 x50 + 18.0856070731282 x51 + 4.87561003168372 x52
       + 7.80098668584588 x53 + 10.1224364938445 x54 + 19.3681703216218 x55
       + 0 x56 + 3.6600206125976 x57 + 16.5341428900031 x58
       + 21.4808244869387 x59 + 11.0985397664984 x60 + 16.1403937165699 x61
       + 1.52370207924181 x62 + 5.89948483186773 x63 + 9.55171744961241 x64
       + 16.234336483729 x65 + 3.6600206125976 x66 + 0 x67
       + 16.7123841464219 x68 + 21.0848015651493 x69 + 10.3068893158413 x70
       + 10.1227545781222 x71 + 17.9505813529882 x72 + 11.7076943528548 x73
       + 7.33967092491178 x74 + 17.6566011551735 x75 + 16.5341428900031 x76
       + 16.7123841464219 x77 + 0 x78 + 5.53487234238513 x79
       + 6.9491889799072 x80 + 9.51733296485074 x81 + 22.1424467810049 x82
       + 15.4900508762517 x83 + 11.557977255151 x84 + 17.601203616147 x85
       + 21.4808244869387 x86 + 21.0848015651493 x87 + 5.53487234238513 x88
       + 0 x89 + 10.7840316089481 x90 + 7.932444699506 x91
       + 11.3661988158471 x92 + 4.81836157769787 x93 + 1.08168273365604 x94
       + 12.9779741053986 x95 + 11.0985397664984 x96 + 10.3068893158413 x97
       + 6.9491889799072 x98 + 10.7840316089481 x99 + 0 x100
Subject To
 c1:        x11 + x21 + x31 + x41 + x51 + x61 + x71 + x81 + x91  = 1
 c2:        x2 + x22 + x32 + x42 + x52 + x62 + x72 + x82 + x92  = 1
 c3:        x3 + x13 + x33 + x43 + x53 + x63 + x73 + x83 + x93  = 1
 c4:        x4 + x14 + x24 + x44 + x54 + x64 + x74 + x84 + x94  = 1
 c5:        x5 + x15 + x25 + x35 + x55 + x65 + x75 + x85 + x95  = 1
 c6:        x6 + x16 + x26 + x36 + x46 + x66 + x76 + x86 + x96  = 1
 c7:        x7 + x17 + x27 + x37 + x47 + x57 + x77 + x87 + x97  = 1
 c8:        x8 + x18 + x28 + x38 + x48 + x58 + x68 + x88 + x98  = 1
 c9:        x9 + x19 + x29 + x39 + x49 + x59 + x69 + x79 + x99  = 1
 c10:       x10 + x20 + x30 + x40 + x50 + x60 + x70 + x80 + x90  = 1
 c11:       x2 + x3 + x4 + x5 + x6 + x7 + x8 + x9 + x10  = 1
 c12:       x11 + x13 + x14 + x15 + x16 + x17 + x18 + x19 + x20  = 1
 c13:       x21 + x22 + x24 + x25 + x26 + x27 + x28 + x29 + x30  = 1
 c14:       x31 + x32 + x33 + x35 + x36 + x37 + x38 + x39 + x40  = 1
 c15:       x41 + x42 + x43 + x44 + x46 + x47 + x48 + x49 + x50  = 1
 c16:       x51 + x52 + x53 + x54 + x55 + x57 + x58 + x59 + x60  = 1
 c17:       x61 + x62 + x63 + x64 + x65 + x66 + x68 + x69 + x70  = 1
 c18:       x71 + x72 + x73 + x74 + x75 + x76 + x77 + x79 + x80  = 1
 c19:       x81 + x82 + x83 + x84 + x85 + x86 + x87 + x88 + x90  = 1
 c20:       x91 + x92 + x93 + x94 + x95 + x96 + x97 + x98 + x99  = 1
 xy(2)(3):  - 8 x13 + y(2)(3) <= 0
 xy(2)(4):  - 8 x14 + y(2)(4) <= 0
 xy(2)(5):  - 8 x15 + y(2)(5) <= 0
 xy(2)(6):  - 8 x16 + y(2)(6) <= 0
 xy(2)(7):  - 8 x17 + y(2)(7) <= 0
 xy(2)(8):  - 8 x18 + y(2)(8) <= 0
 xy(2)(9):  - 8 x19 + y(2)(9) <= 0
 xy(2)(10): - 8 x20 + y(2)(10) <= 0
 xy(3)(2):  - 8 x22 + y(3)(2) <= 0
 xy(3)(4):  - 8 x24 + y(3)(4) <= 0
 xy(3)(5):  - 8 x25 + y(3)(5) <= 0
 xy(3)(6):  - 8 x26 + y(3)(6) <= 0
 xy(3)(7):  - 8 x27 + y(3)(7) <= 0
 xy(3)(8):  - 8 x28 + y(3)(8) <= 0
 xy(3)(9):  - 8 x29 + y(3)(9) <= 0
 xy(3)(10): - 8 x30 + y(3)(10) <= 0
 xy(4)(2):  - 8 x32 + y(4)(2) <= 0
 xy(4)(3):  - 8 x33 + y(4)(3) <= 0
 xy(4)(5):  - 8 x35 + y(4)(5) <= 0
 xy(4)(6):  - 8 x36 + y(4)(6) <= 0
 xy(4)(7):  - 8 x37 + y(4)(7) <= 0
 xy(4)(8):  - 8 x38 + y(4)(8) <= 0
 xy(4)(9):  - 8 x39 + y(4)(9) <= 0
 xy(4)(10): - 8 x40 + y(4)(10) <= 0
 xy(5)(2):  - 8 x42 + y(5)(2) <= 0
 xy(5)(3):  - 8 x43 + y(5)(3) <= 0
 xy(5)(4):  - 8 x44 + y(5)(4) <= 0
 xy(5)(6):  - 8 x46 + y(5)(6) <= 0
 xy(5)(7):  - 8 x47 + y(5)(7) <= 0
 xy(5)(8):  - 8 x48 + y(5)(8) <= 0
 xy(5)(9):  - 8 x49 + y(5)(9) <= 0
 xy(5)(10): - 8 x50 + y(5)(10) <= 0
 xy(6)(2):  - 8 x52 + y(6)(2) <= 0
 xy(6)(3):  - 8 x53 + y(6)(3) <= 0
 xy(6)(4):  - 8 x54 + y(6)(4) <= 0
 xy(6)(5):  - 8 x55 + y(6)(5) <= 0
 xy(6)(7):  - 8 x57 + y(6)(7) <= 0
 xy(6)(8):  - 8 x58 + y(6)(8) <= 0
 xy(6)(9):  - 8 x59 + y(6)(9) <= 0
 xy(6)(10): - 8 x60 + y(6)(10) <= 0
 xy(7)(2):  - 8 x62 + y(7)(2) <= 0
 xy(7)(3):  - 8 x63 + y(7)(3) <= 0
 xy(7)(4):  - 8 x64 + y(7)(4) <= 0
 xy(7)(5):  - 8 x65 + y(7)(5) <= 0
 xy(7)(6):  - 8 x66 + y(7)(6) <= 0
 xy(7)(8):  - 8 x68 + y(7)(8) <= 0
 xy(7)(9):  - 8 x69 + y(7)(9) <= 0
 xy(7)(10): - 8 x70 + y(7)(10) <= 0
 xy(8)(2):  - 8 x72 + y(8)(2) <= 0
 xy(8)(3):  - 8 x73 + y(8)(3) <= 0
 xy(8)(4):  - 8 x74 + y(8)(4) <= 0
 xy(8)(5):  - 8 x75 + y(8)(5) <= 0
 xy(8)(6):  - 8 x76 + y(8)(6) <= 0
 xy(8)(7):  - 8 x77 + y(8)(7) <= 0
 xy(8)(9):  - 8 x79 + y(8)(9) <= 0
 xy(8)(10): - 8 x80 + y(8)(10) <= 0
 xy(9)(2):  - 8 x82 + y(9)(2) <= 0
 xy(9)(3):  - 8 x83 + y(9)(3) <= 0
 xy(9)(4):  - 8 x84 + y(9)(4) <= 0
 xy(9)(5):  - 8 x85 + y(9)(5) <= 0
 xy(9)(6):  - 8 x86 + y(9)(6) <= 0
 xy(9)(7):  - 8 x87 + y(9)(7) <= 0
 xy(9)(8):  - 8 x88 + y(9)(8) <= 0
 xy(9)(10): - 8 x90 + y(9)(10) <= 0
 xy(10)(2): - 8 x92 + y(10)(2) <= 0
 xy(10)(3): - 8 x93 + y(10)(3) <= 0
 xy(10)(4): - 8 x94 + y(10)(4) <= 0
 xy(10)(5): - 8 x95 + y(10)(5) <= 0
 xy(10)(6): - 8 x96 + y(10)(6) <= 0
 xy(10)(7): - 8 x97 + y(10)(7) <= 0
 xy(10)(8): - 8 x98 + y(10)(8) <= 0
 xy(10)(9): - 8 x99 + y(10)(9) <= 0
 y12:       - 9 x2 + y(1)(2)  = 0
 y13:       - 9 x3 + y(1)(3)  = 0
 y14:       - 9 x4 + y(1)(4)  = 0
 y15:       - 9 x5 + y(1)(5)  = 0
 y16:       - 9 x6 + y(1)(6)  = 0
 y17:       - 9 x7 + y(1)(7)  = 0
 y18:       - 9 x8 + y(1)(8)  = 0
 y19:       - 9 x9 + y(1)(9)  = 0
 y110:      - 9 x10 + y(1)(10)  = 0
 y(2):      y(1)(2) - y(2)(1) - y(2)(3) - y(2)(4) - y(2)(5) - y(2)(6) - y(2)(7)
            - y(2)(8) - y(2)(9) - y(2)(10) + y(3)(2) + y(4)(2) + y(5)(2)
            + y(6)(2) + y(7)(2) + y(8)(2) + y(9)(2) + y(10)(2)  = 1
 y(3):      y(1)(3) + y(2)(3) - y(3)(1) - y(3)(2) - y(3)(4) - y(3)(5) - y(3)(6)
            - y(3)(7) - y(3)(8) - y(3)(9) - y(3)(10) + y(4)(3) + y(5)(3)
            + y(6)(3) + y(7)(3) + y(8)(3) + y(9)(3) + y(10)(3)  = 1
 y(4):      y(1)(4) + y(2)(4) + y(3)(4) - y(4)(1) - y(4)(2) - y(4)(3) - y(4)(5)
            - y(4)(6) - y(4)(7) - y(4)(8) - y(4)(9) - y(4)(10) + y(5)(4)
            + y(6)(4) + y(7)(4) + y(8)(4) + y(9)(4) + y(10)(4)  = 1
 y(5):      y(1)(5) + y(2)(5) + y(3)(5) + y(4)(5) - y(5)(1) - y(5)(2) - y(5)(3)
            - y(5)(4) - y(5)(6) - y(5)(7) - y(5)(8) - y(5)(9) - y(5)(10)
            + y(6)(5) + y(7)(5) + y(8)(5) + y(9)(5) + y(10)(5)  = 1
 y(6):      y(1)(6) + y(2)(6) + y(3)(6) + y(4)(6) + y(5)(6) - y(6)(1) - y(6)(2)
            - y(6)(3) - y(6)(4) - y(6)(5) - y(6)(7) - y(6)(8) - y(6)(9)
            - y(6)(10) + y(7)(6) + y(8)(6) + y(9)(6) + y(10)(6)  = 1
 y(7):      y(1)(7) + y(2)(7) + y(3)(7) + y(4)(7) + y(5)(7) + y(6)(7) - y(7)(1)
            - y(7)(2) - y(7)(3) - y(7)(4) - y(7)(5) - y(7)(6) - y(7)(8)
            - y(7)(9) - y(7)(10) + y(8)(7) + y(9)(7) + y(10)(7)  = 1
 y(8):      y(1)(8) + y(2)(8) + y(3)(8) + y(4)(8) + y(5)(8) + y(6)(8) + y(7)(8)
            - y(8)(1) - y(8)(2) - y(8)(3) - y(8)(4) - y(8)(5) - y(8)(6)
            - y(8)(7) - y(8)(9) - y(8)(10) + y(9)(8) + y(10)(8)  = 1
 y(9):      y(1)(9) + y(2)(9) + y(3)(9) + y(4)(9) + y(5)(9) + y(6)(9) + y(7)(9)
            + y(8)(9) - y(9)(1) - y(9)(2) - y(9)(3) - y(9)(4) - y(9)(5)
            - y(9)(6) - y(9)(7) - y(9)(8) - y(9)(10) + y(10)(9)  = 1
 y(10):     y(1)(10) + y(2)(10) + y(3)(10) + y(4)(10) + y(5)(10) + y(6)(10)
            + y(7)(10) + y(8)(10) + y(9)(10) - y(10)(1) - y(10)(2) - y(10)(3)
            - y(10)(4) - y(10)(5) - y(10)(6) - y(10)(7) - y(10)(8) - y(10)(9)
             = 1
Bounds
      x1 = 0
 0 <= x2 <= 1
 0 <= x3 <= 1
 0 <= x4 <= 1
 0 <= x5 <= 1
 0 <= x6 <= 1
 0 <= x7 <= 1
 0 <= x8 <= 1
 0 <= x9 <= 1
 0 <= x10 <= 1
 0 <= x11 <= 1
      x12 = 0
 0 <= x13 <= 1
 0 <= x14 <= 1
 0 <= x15 <= 1
 0 <= x16 <= 1
 0 <= x17 <= 1
 0 <= x18 <= 1
 0 <= x19 <= 1
 0 <= x20 <= 1
 0 <= x21 <= 1
 0 <= x22 <= 1
      x23 = 0
 0 <= x24 <= 1
 0 <= x25 <= 1
 0 <= x26 <= 1
 0 <= x27 <= 1
 0 <= x28 <= 1
 0 <= x29 <= 1
 0 <= x30 <= 1
 0 <= x31 <= 1
 0 <= x32 <= 1
 0 <= x33 <= 1
      x34 = 0
 0 <= x35 <= 1
 0 <= x36 <= 1
 0 <= x37 <= 1
 0 <= x38 <= 1
 0 <= x39 <= 1
 0 <= x40 <= 1
 0 <= x41 <= 1
 0 <= x42 <= 1
 0 <= x43 <= 1
 0 <= x44 <= 1
      x45 = 0
 0 <= x46 <= 1
 0 <= x47 <= 1
 0 <= x48 <= 1
 0 <= x49 <= 1
 0 <= x50 <= 1
 0 <= x51 <= 1
 0 <= x52 <= 1
 0 <= x53 <= 1
 0 <= x54 <= 1
 0 <= x55 <= 1
      x56 = 0
 0 <= x57 <= 1
 0 <= x58 <= 1
 0 <= x59 <= 1
 0 <= x60 <= 1
 0 <= x61 <= 1
 0 <= x62 <= 1
 0 <= x63 <= 1
 0 <= x64 <= 1
 0 <= x65 <= 1
 0 <= x66 <= 1
      x67 = 0
 0 <= x68 <= 1
 0 <= x69 <= 1
 0 <= x70 <= 1
 0 <= x71 <= 1
 0 <= x72 <= 1
 0 <= x73 <= 1
 0 <= x74 <= 1
 0 <= x75 <= 1
 0 <= x76 <= 1
 0 <= x77 <= 1
      x78 = 0
 0 <= x79 <= 1
 0 <= x80 <= 1
 0 <= x81 <= 1
 0 <= x82 <= 1
 0 <= x83 <= 1
 0 <= x84 <= 1
 0 <= x85 <= 1
 0 <= x86 <= 1
 0 <= x87 <= 1
 0 <= x88 <= 1
      x89 = 0
 0 <= x90 <= 1
 0 <= x91 <= 1
 0 <= x92 <= 1
 0 <= x93 <= 1
 0 <= x94 <= 1
 0 <= x95 <= 1
 0 <= x96 <= 1
 0 <= x97 <= 1
 0 <= x98 <= 1
 0 <= x99 <= 1
      x100 = 0
 0 <= y(1)(2) <= 9
 0 <= y(1)(3) <= 9
 0 <= y(1)(4) <= 9
 0 <= y(1)(5) <= 9
 0 <= y(1)(6) <= 9
 0 <= y(1)(7) <= 9
 0 <= y(1)(8) <= 9
 0 <= y(1)(9) <= 9
 0 <= y(1)(10) <= 9
 0 <= y(2)(1) <= 8
 0 <= y(2)(3) <= 8
 0 <= y(2)(4) <= 8
 0 <= y(2)(5) <= 8
 0 <= y(2)(6) <= 8
 0 <= y(2)(7) <= 8
 0 <= y(2)(8) <= 8
 0 <= y(2)(9) <= 8
 0 <= y(2)(10) <= 8
 0 <= y(3)(1) <= 8
 0 <= y(3)(2) <= 8
 0 <= y(3)(4) <= 8
 0 <= y(3)(5) <= 8
 0 <= y(3)(6) <= 8
 0 <= y(3)(7) <= 8
 0 <= y(3)(8) <= 8
 0 <= y(3)(9) <= 8
 0 <= y(3)(10) <= 8
 0 <= y(4)(1) <= 8
 0 <= y(4)(2) <= 8
 0 <= y(4)(3) <= 8
 0 <= y(4)(5) <= 8
 0 <= y(4)(6) <= 8
 0 <= y(4)(7) <= 8
 0 <= y(4)(8) <= 8
 0 <= y(4)(9) <= 8
 0 <= y(4)(10) <= 8
 0 <= y(5)(1) <= 8
 0 <= y(5)(2) <= 8
 0 <= y(5)(3) <= 8
 0 <= y(5)(4) <= 8
 0 <= y(5)(6) <= 8
 0 <= y(5)(7) <= 8
 0 <= y(5)(8) <= 8
 0 <= y(5)(9) <= 8
 0 <= y(5)(10) <= 8
 0 <= y(6)(1) <= 8
 0 <= y(6)(2) <= 8
 0 <= y(6)(3) <= 8
 0 <= y(6)(4) <= 8
 0 <= y(6)(5) <= 8
 0 <= y(6)(7) <= 8
 0 <= y(6)(8) <= 8
 0 <= y(6)(9) <= 8
 0 <= y(6)(10) <= 8
 0 <= y(7)(1) <= 8
 0 <= y(7)(2) <= 8
 0 <= y(7)(3) <= 8
 0 <= y(7)(4) <= 8
 0 <= y(7)(5) <= 8
 0 <= y(7)(6) <= 8
 0 <= y(7)(8) <= 8
 0 <= y(7)(9) <= 8
 0 <= y(7)(10) <= 8
 0 <= y(8)(1) <= 8
 0 <= y(8)(2) <= 8
 0 <= y(8)(3) <= 8
 0 <= y(8)(4) <= 8
 0 <= y(8)(5) <= 8
 0 <= y(8)(6) <= 8
 0 <= y(8)(7) <= 8
 0 <= y(8)(9) <= 8
 0 <= y(8)(10) <= 8
 0 <= y(9)(1) <= 8
 0 <= y(9)(2) <= 8
 0 <= y(9)(3) <= 8
 0 <= y(9)(4) <= 8
 0 <= y(9)(5) <= 8
 0 <= y(9)(6) <= 8
 0 <= y(9)(7) <= 8
 0 <= y(9)(8) <= 8
 0 <= y(9)(10) <= 8
 0 <= y(10)(1) <= 8
 0 <= y(10)(2) <= 8
 0 <= y(10)(3) <= 8
 0 <= y(10)(4) <= 8
 0 <= y(10)(5) <= 8
 0 <= y(10)(6) <= 8
 0 <= y(10)(7) <= 8
 0 <= y(10)(8) <= 8
 0 <= y(10)(9) <= 8
Binaries
 x1  x2  x3  x4  x5  x6  x7  x8  x9  x10  x11  x12  x13  x14  x15  x16  x17 
 x18  x19  x20  x21  x22  x23  x24  x25  x26  x27  x28  x29  x30  x31  x32 
 x33  x34  x35  x36  x37  x38  x39  x40  x41  x42  x43  x44  x45  x46  x47 
 x48  x49  x50  x51  x52  x53  x54  x55  x56  x57  x58  x59  x60  x61  x62 
 x63  x64  x65  x66  x67  x68  x69  x70  x71  x72  x73  x74  x75  x76  x77 
 x78  x79  x80  x81  x82  x83  x84  x85  x86  x87  x88  x89  x90  x91  x92 
 x93  x94  x95  x96  x97  x98  x99  x100 
Generals
 y(1)(2)  y(1)(3)  y(1)(4)  y(1)(5)  y(1)(6)  y(1)(7)  y(1)(8)  y(1)(9) 
 y(1)(10)  y(2)(1)  y(2)(3)  y(2)(4)  y(2)(5)  y(2)(6)  y(2)(7)  y(2)(8) 
 y(2)(9)  y(2)(10)  y(3)(1)  y(3)(2)  y(3)(4)  y(3)(5)  y(3)(6)  y(3)(7) 
 y(3)(8)  y(3)(9)  y(3)(10)  y(4)(1)  y(4)(2)  y(4)(3)  y(4)(5)  y(4)(6) 
 y(4)(7)  y(4)(8)  y(4)(9)  y(4)(10)  y(5)(1)  y(5)(2)  y(5)(3)  y(5)(4) 
 y(5)(6)  y(5)(7)  y(5)(8)  y(5)(9)  y(5)(10)  y(6)(1)  y(6)(2)  y(6)(3) 
 y(6)(4)  y(6)(5)  y(6)(7)  y(6)(8)  y(6)(9)  y(6)(10)  y(7)(1)  y(7)(2) 
 y(7)(3)  y(7)(4)  y(7)(5)  y(7)(6)  y(7)(8)  y(7)(9)  y(7)(10)  y(8)(1) 
 y(8)(2)  y(8)(3)  y(8)(4)  y(8)(5)  y(8)(6)  y(8)(7)  y(8)(9)  y(8)(10) 
 y(9)(1)  y(9)(2)  y(9)(3)  y(9)(4)  y(9)(5)  y(9)(6)  y(9)(7)  y(9)(8) 
 y(9)(10)  y(10)(1)  y(10)(2)  y(10)(3)  y(10)(4)  y(10)(5)  y(10)(6) 
 y(10)(7)  y(10)(8)  y(10)(9) 
End
